Li1 Cl1
1.0
   4.2000000000000002    0.0000000000000000    0.0000000000000000
   0.0000000000000000    4.2000000000000002    0.0000000000000000
   0.0000000000000000    0.0000000000000000    4.2000000000000002
Li Cl
1 1
direct
   0.0000000000000000    0.0000000000000000    0.0000000000000000 Li
   0.5000000000000000    0.5000000000000000    0.5000000000000000 Cl
